p edge 50 117 20
v 1 5
v 1 29
v 1 12
v 3 8 16 46
v 2 25 42
v 2 36 43
v 2 18 47
v 1 37
v 2 6 27
v 2 32 49
v 3 4 21 34
v 2 10 40
v 5 1 13 17 20 45
v 3 2 3 11
v 3 15 31 48
v 3 24 28 50
v 3 9 26 35
v 7 7 19 22 30 38 39 44
v 2 23 33
v 2 14 41
e 1 11
e 1 15
e 1 49
e 1 50
e 2 6
e 2 13
e 2 27
e 2 49
e 3 6
e 3 30
e 3 31
e 4 46
e 5 15
e 5 19
e 5 21
e 5 28
e 5 29
e 5 47
e 5 50
e 6 17
e 6 25
e 6 31
e 6 32
e 6 38
e 6 41
e 6 46
e 7 33
e 7 49
e 8 14
e 8 19
e 8 33
e 8 38
e 8 40
e 9 14
e 9 18
e 9 33
e 9 39
e 9 44
e 10 12
e 10 22
e 10 24
e 10 28
e 10 42
e 10 45
e 11 34
e 11 38
e 11 46
e 12 18
e 12 39
e 12 42
e 13 25
e 13 31
e 13 36
e 13 41
e 13 47
e 14 37
e 14 43
e 15 37
e 15 44
e 16 21
e 16 26
e 16 37
e 16 40
e 17 21
e 17 25
e 17 38
e 17 45
e 18 20
e 18 36
e 18 45
e 18 48
e 19 28
e 19 37
e 19 47
e 20 33
e 20 40
e 20 49
e 21 25
e 21 33
e 21 40
e 21 49
e 22 31
e 22 37
e 22 39
e 22 50
e 23 31
e 23 38
e 24 33
e 24 47
e 24 49
e 25 36
e 26 29
e 26 35
e 27 42
e 27 49
e 28 41
e 29 37
e 30 33
e 30 47
e 31 37
e 31 39
e 31 43
e 32 47
e 33 48
e 35 50
e 36 49
e 37 48
e 38 43
e 38 45
e 39 40
e 39 48
e 39 50
e 40 48
e 40 50
e 41 50
e 42 45
e 45 48
